25
1 0 49
2 0 14
2 1 59
3 0 27
3 1 58
3 2 75
4 0 18
4 1 22
4 2 15
4 3 1
5 0 34
5 1 15
5 2 27
5 3 60
5 4 70
6 0 70
6 1 10
6 2 43
6 3 74
6 4 55
6 5 47
7 0 62
7 1 65
7 2 14
7 3 18
7 4 6
7 5 40
7 6 16
8 0 65
8 1 73
8 2 39
8 3 56
8 4 5
8 5 18
8 6 16
8 7 39
9 0 38
9 1 12
9 2 58
9 3 2
9 4 73
9 5 65
9 6 14
9 7 39
9 8 58
10 0 17
10 1 36
10 2 61
10 3 27
10 4 26
10 5 69
10 6 7
10 7 41
10 8 72
10 9 50
11 0 75
11 1 38
11 2 15
11 3 29
11 4 56
11 5 31
11 6 34
11 7 53
11 8 2
11 9 49
11 10 31
12 0 33
12 1 71
12 2 60
12 3 38
12 4 5
12 5 20
12 6 51
12 7 7
12 8 72
12 9 55
12 10 25
12 11 39
13 0 6
13 1 8
13 2 68
13 3 47
13 4 30
13 5 27
13 6 27
13 7 21
13 8 17
13 9 9
13 10 55
13 11 20
13 12 75
14 0 13
14 1 40
14 2 25
14 3 37
14 4 61
14 5 13
14 6 29
14 7 25
14 8 21
14 9 55
14 10 13
14 11 19
14 12 35
14 13 23
15 0 62
15 1 48
15 2 55
15 3 70
15 4 7
15 5 10
15 6 43
15 7 52
15 8 15
15 9 33
15 10 28
15 11 35
15 12 61
15 13 40
15 14 32
16 0 44
16 1 15
16 2 72
16 3 13
16 4 14
16 5 58
16 6 2
16 7 16
16 8 14
16 9 55
16 10 59
16 11 29
16 12 4
16 13 17
16 14 31
16 15 23
17 0 54
17 1 25
17 2 23
17 3 70
17 4 47
17 5 69
17 6 59
17 7 3
17 8 34
17 9 9
17 10 40
17 11 61
17 12 75
17 13 55
17 14 5
17 15 56
17 16 43
18 0 14
18 1 47
18 2 57
18 3 42
18 4 52
18 5 51
18 6 12
18 7 9
18 8 42
18 9 50
18 10 54
18 11 19
18 12 7
18 13 50
18 14 12
18 15 45
18 16 32
18 17 23
19 0 58
19 1 54
19 2 3
19 3 68
19 4 72
19 5 58
19 6 10
19 7 53
19 8 63
19 9 61
19 10 68
19 11 61
19 12 31
19 13 6
19 14 26
19 15 8
19 16 53
19 17 5
19 18 25
20 0 8
20 1 74
20 2 18
20 3 70
20 4 67
20 5 74
20 6 44
20 7 16
20 8 11
20 9 54
20 10 40
20 11 9
20 12 23
20 13 25
20 14 58
20 15 4
20 16 14
20 17 69
20 18 12
20 19 23
21 0 37
21 1 44
21 2 41
21 3 32
21 4 24
21 5 62
21 6 29
21 7 14
21 8 23
21 9 16
21 10 33
21 11 61
21 12 23
21 13 70
21 14 58
21 15 38
21 16 32
21 17 45
21 18 7
21 19 35
21 20 6
22 0 33
22 1 75
22 2 4
22 3 19
22 4 54
22 5 49
22 6 51
22 7 13
22 8 15
22 9 1
22 10 36
22 11 6
22 12 47
22 13 49
22 14 10
22 15 55
22 16 68
22 17 54
22 18 12
22 19 2
22 20 21
22 21 52
23 0 46
23 1 44
23 2 53
23 3 62
23 4 73
23 5 28
23 6 19
23 7 46
23 8 57
23 9 58
23 10 8
23 11 33
23 12 9
23 13 36
23 14 58
23 15 41
23 16 21
23 17 16
23 18 22
23 19 54
23 20 63
23 21 14
23 22 47
24 0 29
24 1 9
24 2 60
24 3 51
24 4 18
24 5 14
24 6 67
24 7 28
24 8 13
24 9 7
24 10 47
24 11 72
24 12 41
24 13 48
24 14 68
24 15 31
24 16 63
24 17 41
24 18 51
24 19 28
24 20 22
24 21 69
24 22 52
24 23 34
